p tw 406 760
1 171
1 172
1 329
1 330
2 36
2 197
2 198
2 262
2 263
2 273
3 119
3 120
3 271
3 272
3 285
3 286
4 158
4 159
4 307
4 308
4 384
4 385
5 163
5 164
5 320
5 321
5 392
5 393
6 184
6 185
6 286
6 287
7 206
7 207
7 340
7 341
8 120
8 121
8 287
8 288
9 150
9 297
9 298
10 128
10 129
10 269
10 270
11 199
11 200
11 336
11 362
12 135
12 136
12 354
12 355
12 374
12 375
13 133
13 134
13 372
13 373
14 160
14 161
14 273
14 316
14 317
15 240
15 382
15 383
16 247
16 248
16 394
16 395
17 168
17 169
17 326
17 327
17 403
17 404
18 215
18 216
18 349
18 350
19 118
19 119
19 284
19 285
20 43
20 172
20 173
20 359
21 195
21 196
21 334
21 335
22 198
22 199
22 261
22 262
23 87
23 114
23 115
24 204
24 205
24 303
24 304
25 167
25 168
25 401
25 402
26 182
26 183
26 332
27 31
27 193
27 194
27 272
28 207
28 208
28 306
28 307
29 98
29 232
29 233
30 96
30 210
30 211
30 254
30 312
30 313
31 209
31 210
31 272
31 368
31 369
32 345
32 346
32 388
32 389
33 225
33 226
33 268
33 269
33 283
33 284
34 250
34 251
34 400
34 401
35 155
35 156
35 305
35 306
36 229
36 230
36 273
37 190
37 191
37 267
37 268
38 149
38 290
38 291
39 227
39 228
39 332
39 333
40 132
40 133
40 263
40 264
40 321
40 322
41 343
41 344
41 366
41 367
42 223
42 224
42 356
42 357
42 378
42 379
43 53
43 82
43 173
43 174
43 331
43 359
43 406
44 218
44 219
44 355
44 356
44 375
44 376
45 216
45 217
45 322
45 323
46 240
46 241
46 341
46 342
47 344
47 345
47 387
47 388
48 248
48 249
48 323
48 324
48 352
48 353
49 179
49 180
49 264
49 265
49 277
49 278
50 189
50 190
50 360
50 361
51 180
51 181
51 279
51 280
52 143
52 144
52 265
52 266
53 175
53 176
53 331
54 213
54 214
54 314
54 315
54 348
54 349
55 122
55 292
55 293
56 235
56 236
56 293
56 294
57 122
57 123
57 363
58 146
58 147
58 281
58 282
59 241
59 242
59 385
59 386
60 212
60 213
60 347
60 348
61 130
61 131
61 255
61 315
61 316
61 370
61 371
62 137
62 138
62 327
62 328
62 379
62 380
63 144
63 145
63 280
63 281
64 208
64 209
64 309
64 310
65 116
65 117
65 276
65 277
66 123
66 124
66 301
66 302
67 124
67 125
67 302
67 303
68 115
68 116
68 275
68 276
69 127
69 128
69 304
69 305
70 170
70 171
70 328
70 329
71 165
71 166
71 324
71 325
71 397
71 398
72 200
72 201
72 362
72 363
73 196
73 197
73 260
73 261
73 299
73 300
74 129
74 130
74 310
74 311
75 131
75 132
75 317
75 318
76 192
76 193
76 259
76 361
77 221
77 222
77 376
77 377
78 148
78 149
78 333
79 219
79 220
79 253
79 254
79 325
79 326
80 255
80 256
80 390
80 391
81 154
81 155
81 337
81 338
81 382
82 84
82 252
82 406
83 186
83 187
83 288
83 289
84 252
84 330
84 331
85 121
85 289
85 290
86 162
86 163
86 350
86 351
87 177
87 178
87 274
87 275
88 358
88 359
88 380
88 381
89 201
89 202
89 337
90 188
90 189
90 360
91 257
91 258
91 395
91 396
92 237
92 238
92 296
92 297
93 139
93 140
93 381
94 230
94 231
94 291
94 292
95 239
95 300
95 301
96 226
96 227
96 254
96 282
96 283
97 159
97 160
97 260
97 313
97 314
98 233
98 234
99 152
99 153
99 335
99 336
100 141
100 142
100 278
100 279
101 222
101 223
101 266
101 267
102 249
102 250
102 258
102 259
103 150
103 151
103 334
104 234
104 235
104 294
104 295
105 238
105 239
105 298
105 299
106 164
106 165
106 398
106 399
107 214
107 215
107 318
107 319
108 169
108 170
108 404
108 405
109 243
109 244
109 311
109 312
110 203
110 204
110 364
111 157
111 158
111 270
111 271
111 308
111 309
112 126
112 127
112 339
112 340
112 364
112 365
113 245
113 246
113 253
113 319
113 320
114 115
114 274
115 116
116 117
117 118
118 119
119 120
120 121
122 123
123 124
124 125
125 126
126 127
127 128
128 129
129 130
130 131
131 132
132 133
133 134
134 135
135 136
136 137
137 138
138 139
139 140
140 141
141 142
142 143
143 144
144 145
145 146
146 147
147 148
148 149
150 151
151 152
152 153
153 154
154 155
155 156
156 157
157 158
158 159
159 160
160 161
161 162
162 163
163 164
164 165
165 166
166 167
167 168
168 169
169 170
170 171
171 172
172 173
173 174
174 175
175 176
176 177
177 178
178 179
179 180
180 181
181 182
182 183
183 184
184 185
185 186
186 187
187 188
188 189
189 190
190 191
191 192
192 193
193 194
194 195
195 196
196 197
197 198
198 199
199 200
200 201
201 202
202 203
203 204
204 205
205 206
206 207
207 208
208 209
209 210
210 211
211 212
212 213
213 214
214 215
215 216
216 217
217 218
218 219
219 220
220 221
221 222
222 223
223 224
224 225
225 226
226 227
227 228
228 229
229 230
230 231
231 232
232 233
233 234
234 235
235 236
236 237
237 238
238 239
240 241
241 242
242 243
243 244
244 245
245 246
246 247
247 248
248 249
249 250
250 251
251 252
253 254
255 256
256 257
257 258
258 259
260 261
261 262
262 263
263 264
264 265
265 266
266 267
267 268
268 269
269 270
270 271
271 272
274 275
275 276
276 277
277 278
278 279
279 280
280 281
281 282
282 283
283 284
284 285
285 286
286 287
287 288
288 289
289 290
290 291
291 292
292 293
293 294
294 295
295 296
296 297
297 298
298 299
299 300
300 301
301 302
302 303
303 304
304 305
305 306
306 307
307 308
308 309
309 310
310 311
311 312
312 313
313 314
314 315
315 316
316 317
317 318
318 319
319 320
320 321
321 322
322 323
323 324
324 325
325 326
326 327
327 328
328 329
329 330
330 331
332 333
334 335
335 336
337 338
338 339
339 340
340 341
341 342
342 343
343 344
344 345
345 346
346 347
347 348
348 349
349 350
350 351
351 352
352 353
353 354
354 355
355 356
356 357
357 358
358 359
360 361
362 363
364 365
365 366
366 367
367 368
368 369
369 370
370 371
371 372
372 373
373 374
374 375
375 376
376 377
377 378
378 379
379 380
380 381
382 383
383 384
384 385
385 386
386 387
387 388
388 389
389 390
390 391
391 392
392 393
393 394
394 395
395 396
396 397
397 398
398 399
399 400
400 401
401 402
402 403
403 404
404 405
405 406
